42995
100,112,113,101,114,115,116,117,168,167,134,133,132,126,125,122,121,119,120,124,123,39,130,131,129,128,127,29,137,142,138,139,143,144,145,140,141,184,185,187,190,188,186,136,135,171,173,175,176,177,189,191,192,197,199,201,202,200,198,193,194,182,196,195,183,179,181,180,178,174,172,166,165,164,169,170,163,160,161,162,157,158,159,156,102,98,96,97,93,92,94,88,87,89,91,90,81,82,80,79,77,78,83,86,85,84,67,66,65,63,62,61,60,57,59,58,69,70,71,72,73,64,68,74,76,75,1,16,3,2,5,4,8,6,7,9,10,17,18,146,154,155,153,152,151,150,149,148,147,25,24,23,22,11,19,12,13,14,15,20,21,27,28,37,38,118,40,41,103,104,105,106,107,111,99,110,109,108,46,45,42,44,43,36,35,33,26,32,31,30,51,54,55,52,34,53,56,47,49,48,50,95,100
